# Objective value = 73
WA1n 0
WA1p 0
WA2n 1
WA2p 0
WB1n 0
WB1p 0
WB2n 0
WB2p 1
WC1n 0
WC1p 1
WD1n 0
WD1p 1
WE1n 2
WE1p 0
WE2n 1
WE2p 0
WF1n 0
WF1p 2
WF2n 0
WF2p 1
WG1n 6
WG1p 0
WH1n 0
WH1p 6
WI1n 0
WI1p 6
WJ1n 0
WJ1p 20
WJ2n 0
WJ2p 1
WT1n 0
WT1p 17
WT2n 0
WT2p 1
5 7
a 0
b 0
c 0
d 1
e 1
f 1
g 0
h 0
i 1
j 1
k 0
l 1
m 1
n 1
o 1
p 1
q 1
